; benchmark generated from python API
(set-info :status unknown)
(declare-datatypes ((IntState 0)) (((Mk1 (val1 Int)) (Mk2 (val2 Int)))))
 (declare-fun c_main_~i~6 () Int)
(declare-fun c_main_~j~6 () Int)
(declare-fun c_main_~k~6 () Int)
(assert
 (let (($x47 (<= c_main_~j~6 (+ (* 2 c_main_~i~6) 1))))
 (let (($x156 (<= c_main_~j~6 (+ (* 2 c_main_~i~6) 2))))
 (let (($x60 (<= c_main_~i~6 3)))
 (let (($x87 (exists ((main_~i~6_st IntState) (val!167 Int) )(let ((?x56 (val2 main_~i~6_st)))
 (let (($x110 (<= ?x56 3)))
 (let (($x171 (and (<= c_main_~j~6 (+ (* 2 ?x56) 2)) $x110 (<= ?x56 c_main_~k~6))))
 (let (($x52 (not (= main_~i~6_st (Mk1 val!167)))))
 (and $x52 $x171))))))
 ))
 (let (($x174 (<= c_main_~i~6 2)))
 (let ((?x66 (* 2 c_main_~i~6)))
 (let (($x67 (<= c_main_~j~6 ?x66)))
 (let (($x14 (exists ((v_nnf_44 Int) )(let (($x82 (<= v_nnf_44 3)))
 (let (($x70 (<= c_main_~j~6 (+ (* 2 v_nnf_44) 2))))
 (and (<= (+ v_nnf_44 1) c_main_~k~6) $x70 $x82))))
 ))
 (and (and $x174 $x14 $x67 $x60 $x156 $x47) (not (and $x174 $x87 $x60 $x156 $x47))))))))))))
(check-sat)
